N = 6; %nombre d'années dans le futur où on a besoin du plus gros cashdown
LIQUIDE_NOW = 4500;
DROITS_CELIAPP_RESTANTS = 0;
DROITS_CELI_RESTANTS = 0;
DROITS_REER_RESTANTS = 30872;
NONENR_NOW = 28330;
CELI_NOW = 49800;
CELIAPP_NOW = 17500;
REER_NOW = 0;
ANNEES_CELIAPP_ACCUMULEES = 2;
SALAIRES_FUTURS_IMPOT = [
63000,
102000,
87000,
88700,
90500,
92300
];
DEPENSES = [
36000,
36700,
37500,
38200,
39000,
39750
];